sing20200320.00
TTAA 70001 48698
99010 26632 03504 00110 25836 03006 92794 21612 11002
85525 17209 23005 70166 09650 23006 50588 05150 12505
40760 15162 19508 30972 29567 09510 25099 40761 10522
20247 53135 12524 15426 68541 14534 10663 78360 04010
88999
77999=
TTCC 70007 48698
70864 80360 29008
88917 80959 03508
77999=
TTDD 7000/ 48698
11917 80959 22857 79160 33747 81759 44676 78361 55633
79961 66604 71570 77578 68573
21212 11911 05010 22893 06012 33865 00511 44850 35511
55840 36010 66738 26010 77708 28510 88679 20510 99578
28002=
